c FILE /home/rafael/Documents/HappySet/MIHS/inputs/happygen/output/graph_random_k2_p0.4_v100_20241127_083556.txt
c SOURCE This is a random graph formed for the happy graph colouring problem.
c DESCRIPTION It was generated using the problem generator of Rhyd Lewis
c
c GRAPH STATS
c Seed                             = -11236504
c Number of Nodes                  = 100
c Edge probability defined by user = 0.5
c Number of colours k              = 2
c Number of pre-assignments        = 40
c Actual density                   = 0.498788
c 
c The degrees of nodes 1 to 100, respectively, are as follows 
c [65, 61, 57, 57, 57, 57, 56, 56, 56, 55, 55, 55, 55, 54, 54, 54, 54, 54, 53, 53, 53, 53, 53, 52, 52, 52, 
c  52, 52, 51, 51, 51, 51, 51, 51, 51, 51, 51, 51, 50, 50, 50, 50, 50, 50, 50, 50, 50, 49, 49, 49, 49, 
c  49, 49, 49, 49, 49, 49, 49, 48, 48, 48, 48, 48, 48, 48, 48, 47, 47, 47, 47, 47, 47, 47, 47, 47, 47, 
c  46, 46, 46, 46, 46, 46, 45, 45, 45, 45, 45, 45, 44, 44, 44, 44, 44, 43, 42, 41, 41, 39, 38, 38] 
c  
p edge 100 2469 2
e 1 2
e 1 3
e 1 5
e 1 6
e 1 7
e 1 10
e 1 13
e 1 14
e 1 15
e 1 17
e 1 19
e 1 20
e 1 21
e 1 22
e 1 23
e 1 24
e 1 25
e 1 27
e 1 28
e 1 30
e 1 33
e 1 34
e 1 35
e 1 36
e 1 37
e 1 39
e 1 40
e 1 41
e 1 42
e 1 43
e 1 44
e 1 45
e 1 46
e 1 47
e 1 49
e 1 50
e 1 52
e 1 53
e 1 55
e 1 57
e 1 58
e 1 59
e 1 62
e 1 65
e 1 68
e 1 69
e 1 70
e 1 71
e 1 72
e 1 75
e 1 76
e 1 78
e 1 79
e 1 80
e 1 81
e 1 82
e 1 83
e 1 84
e 1 85
e 1 90
e 1 91
e 1 93
e 1 94
e 1 98
e 1 100
e 2 9
e 2 10
e 2 12
e 2 15
e 2 16
e 2 17
e 2 18
e 2 19
e 2 21
e 2 22
e 2 23
e 2 24
e 2 25
e 2 27
e 2 28
e 2 29
e 2 30
e 2 31
e 2 33
e 2 36
e 2 37
e 2 38
e 2 39
e 2 40
e 2 41
e 2 42
e 2 45
e 2 47
e 2 48
e 2 49
e 2 50
e 2 52
e 2 53
e 2 54
e 2 59
e 2 60
e 2 61
e 2 62
e 2 63
e 2 65
e 2 67
e 2 68
e 2 69
e 2 70
e 2 71
e 2 72
e 2 73
e 2 74
e 2 76
e 2 77
e 2 80
e 2 81
e 2 82
e 2 83
e 2 84
e 2 85
e 2 90
e 2 95
e 2 96
e 2 97
e 3 4
e 3 5
e 3 6
e 3 8
e 3 9
e 3 11
e 3 12
e 3 13
e 3 14
e 3 17
e 3 18
e 3 19
e 3 20
e 3 22
e 3 23
e 3 24
e 3 28
e 3 29
e 3 33
e 3 34
e 3 36
e 3 37
e 3 40
e 3 41
e 3 43
e 3 44
e 3 46
e 3 51
e 3 52
e 3 55
e 3 56
e 3 57
e 3 59
e 3 62
e 3 65
e 3 66
e 3 67
e 3 68
e 3 69
e 3 70
e 3 72
e 3 73
e 3 76
e 3 77
e 3 78
e 3 79
e 3 81
e 3 83
e 3 84
e 3 85
e 3 87
e 3 89
e 3 91
e 3 92
e 3 94
e 3 97
e 4 6
e 4 7
e 4 8
e 4 9
e 4 10
e 4 11
e 4 12
e 4 15
e 4 16
e 4 17
e 4 18
e 4 21
e 4 24
e 4 26
e 4 28
e 4 29
e 4 34
e 4 35
e 4 36
e 4 39
e 4 40
e 4 41
e 4 42
e 4 43
e 4 46
e 4 47
e 4 48
e 4 49
e 4 50
e 4 53
e 4 55
e 4 56
e 4 59
e 4 60
e 4 61
e 4 64
e 4 66
e 4 67
e 4 70
e 4 74
e 4 75
e 4 76
e 4 77
e 4 78
e 4 83
e 4 84
e 4 85
e 4 86
e 4 87
e 4 88
e 4 89
e 4 90
e 4 91
e 4 92
e 4 93
e 4 99
e 5 6
e 5 8
e 5 10
e 5 12
e 5 13
e 5 14
e 5 15
e 5 16
e 5 17
e 5 18
e 5 20
e 5 22
e 5 26
e 5 27
e 5 28
e 5 29
e 5 31
e 5 32
e 5 36
e 5 37
e 5 38
e 5 39
e 5 43
e 5 46
e 5 47
e 5 49
e 5 52
e 5 53
e 5 54
e 5 55
e 5 59
e 5 60
e 5 61
e 5 65
e 5 68
e 5 70
e 5 72
e 5 73
e 5 77
e 5 78
e 5 81
e 5 82
e 5 83
e 5 84
e 5 85
e 5 86
e 5 87
e 5 88
e 5 91
e 5 92
e 5 93
e 5 96
e 5 97
e 5 98
e 5 100
e 6 7
e 6 8
e 6 9
e 6 10
e 6 12
e 6 14
e 6 17
e 6 20
e 6 26
e 6 27
e 6 28
e 6 30
e 6 31
e 6 32
e 6 34
e 6 35
e 6 37
e 6 38
e 6 39
e 6 40
e 6 43
e 6 44
e 6 46
e 6 48
e 6 49
e 6 51
e 6 54
e 6 57
e 6 58
e 6 59
e 6 61
e 6 63
e 6 65
e 6 66
e 6 67
e 6 68
e 6 70
e 6 72
e 6 73
e 6 75
e 6 77
e 6 78
e 6 80
e 6 81
e 6 83
e 6 85
e 6 86
e 6 87
e 6 94
e 6 96
e 6 97
e 6 99
e 6 100
e 7 8
e 7 9
e 7 10
e 7 11
e 7 12
e 7 13
e 7 16
e 7 18
e 7 19
e 7 20
e 7 22
e 7 24
e 7 25
e 7 27
e 7 28
e 7 33
e 7 36
e 7 38
e 7 39
e 7 44
e 7 46
e 7 48
e 7 49
e 7 50
e 7 51
e 7 52
e 7 54
e 7 55
e 7 58
e 7 60
e 7 63
e 7 64
e 7 66
e 7 69
e 7 70
e 7 72
e 7 73
e 7 78
e 7 79
e 7 80
e 7 81
e 7 82
e 7 83
e 7 86
e 7 87
e 7 88
e 7 90
e 7 92
e 7 93
e 7 94
e 7 95
e 7 97
e 7 98
e 8 11
e 8 12
e 8 13
e 8 15
e 8 16
e 8 17
e 8 20
e 8 21
e 8 22
e 8 23
e 8 24
e 8 26
e 8 27
e 8 28
e 8 29
e 8 32
e 8 34
e 8 36
e 8 37
e 8 38
e 8 39
e 8 40
e 8 44
e 8 45
e 8 48
e 8 52
e 8 53
e 8 56
e 8 61
e 8 63
e 8 64
e 8 70
e 8 72
e 8 73
e 8 74
e 8 75
e 8 79
e 8 80
e 8 81
e 8 82
e 8 83
e 8 84
e 8 89
e 8 90
e 8 91
e 8 93
e 8 95
e 8 96
e 8 97
e 8 99
e 8 100
e 9 11
e 9 12
e 9 13
e 9 14
e 9 15
e 9 16
e 9 18
e 9 19
e 9 20
e 9 23
e 9 25
e 9 32
e 9 34
e 9 35
e 9 36
e 9 39
e 9 41
e 9 42
e 9 43
e 9 44
e 9 45
e 9 46
e 9 48
e 9 50
e 9 51
e 9 52
e 9 56
e 9 57
e 9 58
e 9 59
e 9 60
e 9 61
e 9 62
e 9 64
e 9 71
e 9 72
e 9 74
e 9 75
e 9 76
e 9 77
e 9 78
e 9 80
e 9 82
e 9 87
e 9 89
e 9 90
e 9 92
e 9 93
e 9 94
e 9 98
e 9 99
e 10 11
e 10 14
e 10 15
e 10 16
e 10 19
e 10 22
e 10 23
e 10 25
e 10 26
e 10 28
e 10 30
e 10 32
e 10 35
e 10 36
e 10 37
e 10 38
e 10 39
e 10 40
e 10 41
e 10 42
e 10 43
e 10 44
e 10 45
e 10 47
e 10 49
e 10 52
e 10 53
e 10 54
e 10 57
e 10 60
e 10 62
e 10 63
e 10 64
e 10 65
e 10 67
e 10 68
e 10 70
e 10 72
e 10 76
e 10 79
e 10 80
e 10 81
e 10 84
e 10 89
e 10 90
e 10 91
e 10 92
e 10 94
e 10 95
e 11 12
e 11 15
e 11 17
e 11 18
e 11 19
e 11 21
e 11 22
e 11 24
e 11 27
e 11 30
e 11 31
e 11 35
e 11 38
e 11 40
e 11 41
e 11 42
e 11 43
e 11 44
e 11 45
e 11 46
e 11 47
e 11 52
e 11 54
e 11 57
e 11 58
e 11 60
e 11 61
e 11 62
e 11 63
e 11 64
e 11 65
e 11 66
e 11 70
e 11 75
e 11 76
e 11 77
e 11 80
e 11 82
e 11 83
e 11 85
e 11 86
e 11 87
e 11 88
e 11 92
e 11 93
e 11 94
e 11 96
e 11 97
e 11 99
e 12 14
e 12 17
e 12 19
e 12 20
e 12 22
e 12 24
e 12 25
e 12 29
e 12 30
e 12 31
e 12 33
e 12 34
e 12 35
e 12 37
e 12 38
e 12 39
e 12 40
e 12 41
e 12 43
e 12 44
e 12 47
e 12 48
e 12 49
e 12 51
e 12 53
e 12 56
e 12 57
e 12 59
e 12 61
e 12 63
e 12 64
e 12 65
e 12 67
e 12 69
e 12 70
e 12 71
e 12 72
e 12 73
e 12 77
e 12 79
e 12 81
e 12 85
e 12 86
e 12 87
e 12 89
e 12 99
e 13 14
e 13 16
e 13 17
e 13 18
e 13 20
e 13 22
e 13 23
e 13 25
e 13 26
e 13 28
e 13 29
e 13 30
e 13 32
e 13 35
e 13 36
e 13 37
e 13 38
e 13 39
e 13 40
e 13 45
e 13 46
e 13 49
e 13 52
e 13 53
e 13 54
e 13 55
e 13 59
e 13 60
e 13 63
e 13 66
e 13 67
e 13 68
e 13 70
e 13 71
e 13 72
e 13 75
e 13 76
e 13 77
e 13 79
e 13 81
e 13 83
e 13 88
e 13 89
e 13 91
e 13 94
e 13 95
e 13 97
e 13 98
e 13 99
e 14 15
e 14 18
e 14 19
e 14 21
e 14 22
e 14 24
e 14 25
e 14 26
e 14 28
e 14 29
e 14 30
e 14 31
e 14 33
e 14 34
e 14 39
e 14 40
e 14 41
e 14 42
e 14 45
e 14 46
e 14 48
e 14 49
e 14 53
e 14 55
e 14 58
e 14 60
e 14 62
e 14 63
e 14 64
e 14 65
e 14 66
e 14 69
e 14 71
e 14 73
e 14 74
e 14 77
e 14 78
e 14 80
e 14 81
e 14 87
e 14 88
e 14 90
e 14 92
e 14 93
e 14 94
e 14 96
e 15 16
e 15 17
e 15 20
e 15 21
e 15 22
e 15 24
e 15 25
e 15 27
e 15 28
e 15 29
e 15 32
e 15 34
e 15 36
e 15 38
e 15 39
e 15 41
e 15 42
e 15 43
e 15 45
e 15 48
e 15 49
e 15 50
e 15 51
e 15 53
e 15 54
e 15 55
e 15 56
e 15 57
e 15 58
e 15 59
e 15 61
e 15 62
e 15 65
e 15 68
e 15 70
e 15 71
e 15 75
e 15 79
e 15 80
e 15 81
e 15 85
e 15 90
e 15 91
e 15 92
e 15 93
e 16 18
e 16 20
e 16 21
e 16 23
e 16 24
e 16 25
e 16 27
e 16 30
e 16 33
e 16 34
e 16 35
e 16 36
e 16 37
e 16 40
e 16 41
e 16 42
e 16 43
e 16 46
e 16 49
e 16 51
e 16 53
e 16 55
e 16 58
e 16 59
e 16 60
e 16 61
e 16 63
e 16 65
e 16 67
e 16 69
e 16 70
e 16 71
e 16 72
e 16 77
e 16 78
e 16 79
e 16 84
e 16 86
e 16 87
e 16 89
e 16 91
e 16 92
e 16 97
e 16 98
e 16 100
e 17 18
e 17 20
e 17 21
e 17 25
e 17 28
e 17 29
e 17 31
e 17 33
e 17 36
e 17 37
e 17 42
e 17 43
e 17 44
e 17 45
e 17 48
e 17 49
e 17 50
e 17 54
e 17 55
e 17 56
e 17 57
e 17 59
e 17 61
e 17 62
e 17 63
e 17 64
e 17 66
e 17 67
e 17 69
e 17 71
e 17 74
e 17 79
e 17 80
e 17 81
e 17 82
e 17 83
e 17 84
e 17 87
e 17 90
e 17 93
e 17 94
e 17 95
e 17 98
e 18 19
e 18 20
e 18 22
e 18 27
e 18 28
e 18 30
e 18 31
e 18 33
e 18 34
e 18 36
e 18 38
e 18 39
e 18 40
e 18 41
e 18 43
e 18 44
e 18 45
e 18 51
e 18 52
e 18 53
e 18 54
e 18 55
e 18 58
e 18 59
e 18 61
e 18 63
e 18 64
e 18 65
e 18 68
e 18 70
e 18 81
e 18 83
e 18 84
e 18 85
e 18 86
e 18 88
e 18 90
e 18 92
e 18 93
e 18 95
e 18 97
e 18 99
e 18 100
e 19 21
e 19 22
e 19 23
e 19 26
e 19 27
e 19 28
e 19 29
e 19 30
e 19 31
e 19 32
e 19 36
e 19 38
e 19 39
e 19 40
e 19 43
e 19 44
e 19 46
e 19 47
e 19 49
e 19 50
e 19 54
e 19 57
e 19 62
e 19 63
e 19 66
e 19 68
e 19 70
e 19 72
e 19 73
e 19 76
e 19 77
e 19 78
e 19 79
e 19 80
e 19 81
e 19 83
e 19 86
e 19 87
e 19 90
e 19 92
e 19 94
e 19 96
e 19 97
e 20 22
e 20 24
e 20 27
e 20 30
e 20 32
e 20 33
e 20 36
e 20 37
e 20 38
e 20 40
e 20 41
e 20 44
e 20 45
e 20 47
e 20 48
e 20 49
e 20 54
e 20 55
e 20 57
e 20 58
e 20 61
e 20 67
e 20 70
e 20 71
e 20 72
e 20 73
e 20 74
e 20 75
e 20 76
e 20 82
e 20 84
e 20 86
e 20 87
e 20 89
e 20 90
e 20 92
e 20 95
e 20 96
e 20 97
e 20 99
e 21 22
e 21 25
e 21 27
e 21 28
e 21 29
e 21 30
e 21 31
e 21 33
e 21 35
e 21 36
e 21 37
e 21 40
e 21 46
e 21 48
e 21 49
e 21 52
e 21 54
e 21 57
e 21 58
e 21 59
e 21 60
e 21 61
e 21 62
e 21 63
e 21 64
e 21 65
e 21 66
e 21 67
e 21 68
e 21 69
e 21 72
e 21 73
e 21 75
e 21 77
e 21 80
e 21 83
e 21 85
e 21 87
e 21 88
e 21 89
e 21 92
e 21 96
e 21 98
e 22 28
e 22 33
e 22 34
e 22 35
e 22 36
e 22 39
e 22 41
e 22 43
e 22 45
e 22 46
e 22 47
e 22 48
e 22 49
e 22 50
e 22 51
e 22 54
e 22 55
e 22 57
e 22 60
e 22 62
e 22 64
e 22 65
e 22 67
e 22 69
e 22 70
e 22 75
e 22 76
e 22 78
e 22 79
e 22 81
e 22 84
e 22 86
e 22 87
e 22 90
e 22 91
e 22 94
e 22 95
e 23 24
e 23 25
e 23 26
e 23 27
e 23 28
e 23 29
e 23 30
e 23 34
e 23 35
e 23 37
e 23 38
e 23 41
e 23 42
e 23 47
e 23 48
e 23 49
e 23 51
e 23 52
e 23 53
e 23 54
e 23 55
e 23 56
e 23 57
e 23 58
e 23 62
e 23 63
e 23 64
e 23 66
e 23 69
e 23 73
e 23 74
e 23 75
e 23 80
e 23 82
e 23 85
e 23 86
e 23 87
e 23 88
e 23 89
e 23 90
e 23 91
e 23 95
e 23 97
e 23 98
e 24 26
e 24 27
e 24 28
e 24 31
e 24 33
e 24 34
e 24 36
e 24 37
e 24 42
e 24 44
e 24 47
e 24 49
e 24 50
e 24 52
e 24 53
e 24 54
e 24 56
e 24 59
e 24 61
e 24 64
e 24 65
e 24 67
e 24 75
e 24 76
e 24 78
e 24 79
e 24 81
e 24 82
e 24 83
e 24 84
e 24 86
e 24 89
e 24 90
e 24 91
e 24 92
e 24 93
e 24 96
e 24 97
e 24 99
e 25 28
e 25 32
e 25 33
e 25 34
e 25 35
e 25 37
e 25 39
e 25 43
e 25 46
e 25 47
e 25 50
e 25 51
e 25 53
e 25 54
e 25 55
e 25 56
e 25 61
e 25 62
e 25 64
e 25 66
e 25 67
e 25 72
e 25 73
e 25 74
e 25 76
e 25 77
e 25 78
e 25 79
e 25 80
e 25 84
e 25 89
e 25 90
e 25 91
e 25 92
e 25 93
e 25 94
e 25 96
e 25 97
e 25 99
e 26 27
e 26 29
e 26 30
e 26 32
e 26 35
e 26 36
e 26 37
e 26 39
e 26 40
e 26 41
e 26 42
e 26 44
e 26 45
e 26 46
e 26 48
e 26 50
e 26 51
e 26 52
e 26 53
e 26 54
e 26 58
e 26 59
e 26 60
e 26 62
e 26 64
e 26 65
e 26 66
e 26 73
e 26 76
e 26 78
e 26 81
e 26 82
e 26 86
e 26 87
e 26 88
e 26 89
e 26 90
e 26 91
e 26 93
e 26 95
e 26 96
e 26 100
e 27 29
e 27 30
e 27 31
e 27 32
e 27 33
e 27 34
e 27 37
e 27 38
e 27 40
e 27 42
e 27 43
e 27 45
e 27 46
e 27 47
e 27 49
e 27 50
e 27 52
e 27 53
e 27 57
e 27 58
e 27 63
e 27 64
e 27 69
e 27 76
e 27 79
e 27 81
e 27 82
e 27 83
e 27 84
e 27 85
e 27 88
e 27 89
e 27 90
e 27 93
e 27 98
e 27 100
e 28 33
e 28 34
e 28 36
e 28 37
e 28 38
e 28 43
e 28 44
e 28 46
e 28 49
e 28 50
e 28 51
e 28 52
e 28 53
e 28 57
e 28 59
e 28 60
e 28 61
e 28 62
e 28 64
e 28 67
e 28 68
e 28 71
e 28 72
e 28 73
e 28 76
e 28 78
e 28 80
e 28 87
e 28 88
e 28 92
e 28 97
e 28 100
e 29 31
e 29 32
e 29 33
e 29 38
e 29 41
e 29 42
e 29 48
e 29 54
e 29 55
e 29 58
e 29 59
e 29 60
e 29 62
e 29 63
e 29 65
e 29 66
e 29 68
e 29 69
e 29 72
e 29 73
e 29 74
e 29 77
e 29 79
e 29 80
e 29 82
e 29 83
e 29 84
e 29 88
e 29 90
e 29 92
e 29 93
e 29 94
e 29 95
e 29 97
e 29 98
e 29 100
e 30 31
e 30 35
e 30 36
e 30 40
e 30 41
e 30 42
e 30 43
e 30 44
e 30 46
e 30 48
e 30 50
e 30 51
e 30 53
e 30 54
e 30 55
e 30 58
e 30 59
e 30 62
e 30 65
e 30 67
e 30 68
e 30 69
e 30 70
e 30 72
e 30 74
e 30 75
e 30 79
e 30 81
e 30 82
e 30 85
e 30 89
e 30 90
e 30 91
e 30 94
e 30 98
e 31 32
e 31 33
e 31 34
e 31 38
e 31 39
e 31 40
e 31 42
e 31 44
e 31 47
e 31 48
e 31 49
e 31 50
e 31 51
e 31 53
e 31 54
e 31 56
e 31 57
e 31 58
e 31 60
e 31 62
e 31 63
e 31 65
e 31 68
e 31 69
e 31 70
e 31 71
e 31 72
e 31 74
e 31 85
e 31 86
e 31 88
e 31 89
e 31 93
e 31 94
e 31 97
e 31 99
e 31 100
e 32 33
e 32 35
e 32 36
e 32 38
e 32 39
e 32 40
e 32 41
e 32 42
e 32 48
e 32 51
e 32 52
e 32 53
e 32 56
e 32 57
e 32 61
e 32 63
e 32 64
e 32 65
e 32 66
e 32 67
e 32 70
e 32 71
e 32 74
e 32 75
e 32 76
e 32 77
e 32 78
e 32 83
e 32 84
e 32 86
e 32 88
e 32 92
e 32 93
e 32 95
e 32 98
e 32 99
e 32 100
e 33 36
e 33 37
e 33 39
e 33 41
e 33 48
e 33 50
e 33 51
e 33 53
e 33 54
e 33 55
e 33 57
e 33 58
e 33 61
e 33 63
e 33 64
e 33 67
e 33 68
e 33 71
e 33 72
e 33 74
e 33 75
e 33 76
e 33 77
e 33 78
e 33 82
e 33 84
e 33 90
e 33 91
e 33 93
e 33 98
e 33 99
e 33 100
e 34 35
e 34 36
e 34 37
e 34 39
e 34 44
e 34 46
e 34 47
e 34 48
e 34 50
e 34 55
e 34 56
e 34 58
e 34 61
e 34 62
e 34 63
e 34 66
e 34 68
e 34 71
e 34 73
e 34 79
e 34 80
e 34 81
e 34 82
e 34 83
e 34 84
e 34 85
e 34 86
e 34 87
e 34 88
e 34 93
e 34 94
e 34 96
e 34 97
e 35 36
e 35 38
e 35 40
e 35 41
e 35 42
e 35 45
e 35 47
e 35 49
e 35 51
e 35 52
e 35 53
e 35 57
e 35 58
e 35 61
e 35 62
e 35 64
e 35 66
e 35 67
e 35 68
e 35 70
e 35 72
e 35 74
e 35 76
e 35 77
e 35 80
e 35 83
e 35 85
e 35 86
e 35 88
e 35 94
e 35 96
e 35 97
e 35 99
e 35 100
e 36 38
e 36 40
e 36 42
e 36 44
e 36 46
e 36 49
e 36 51
e 36 52
e 36 53
e 36 56
e 36 57
e 36 65
e 36 69
e 36 72
e 36 75
e 36 76
e 36 80
e 36 82
e 36 85
e 36 86
e 36 91
e 36 93
e 36 98
e 36 99
e 36 100
e 37 38
e 37 40
e 37 42
e 37 44
e 37 45
e 37 46
e 37 47
e 37 48
e 37 49
e 37 50
e 37 51
e 37 52
e 37 57
e 37 58
e 37 59
e 37 60
e 37 64
e 37 66
e 37 69
e 37 70
e 37 74
e 37 75
e 37 79
e 37 81
e 37 84
e 37 89
e 37 92
e 37 95
e 37 96
e 37 98
e 38 39
e 38 42
e 38 43
e 38 45
e 38 48
e 38 51
e 38 52
e 38 53
e 38 55
e 38 61
e 38 62
e 38 65
e 38 66
e 38 68
e 38 71
e 38 72
e 38 74
e 38 77
e 38 79
e 38 81
e 38 82
e 38 83
e 38 84
e 38 86
e 38 88
e 38 90
e 38 92
e 38 93
e 38 96
e 39 43
e 39 50
e 39 51
e 39 53
e 39 56
e 39 58
e 39 62
e 39 64
e 39 67
e 39 68
e 39 69
e 39 71
e 39 73
e 39 76
e 39 77
e 39 82
e 39 83
e 39 85
e 39 87
e 39 90
e 39 91
e 39 92
e 39 93
e 39 94
e 39 96
e 39 98
e 39 100
e 40 42
e 40 43
e 40 44
e 40 45
e 40 46
e 40 48
e 40 49
e 40 52
e 40 55
e 40 57
e 40 58
e 40 60
e 40 64
e 40 70
e 40 75
e 40 81
e 40 83
e 40 84
e 40 87
e 40 89
e 40 93
e 40 94
e 40 95
e 40 96
e 40 97
e 40 100
e 41 42
e 41 43
e 41 46
e 41 47
e 41 49
e 41 50
e 41 52
e 41 53
e 41 54
e 41 55
e 41 57
e 41 59
e 41 60
e 41 61
e 41 62
e 41 66
e 41 71
e 41 75
e 41 76
e 41 80
e 41 81
e 41 84
e 41 89
e 41 90
e 41 91
e 41 92
e 41 94
e 41 95
e 41 97
e 42 45
e 42 52
e 42 54
e 42 55
e 42 56
e 42 60
e 42 63
e 42 64
e 42 65
e 42 68
e 42 69
e 42 71
e 42 75
e 42 76
e 42 77
e 42 78
e 42 80
e 42 81
e 42 82
e 42 83
e 42 84
e 42 85
e 42 87
e 42 93
e 42 95
e 42 99
e 43 45
e 43 51
e 43 52
e 43 55
e 43 56
e 43 64
e 43 65
e 43 69
e 43 70
e 43 71
e 43 73
e 43 74
e 43 76
e 43 77
e 43 78
e 43 79
e 43 80
e 43 84
e 43 85
e 43 87
e 43 88
e 43 89
e 43 91
e 43 94
e 43 96
e 43 97
e 43 98
e 44 45
e 44 46
e 44 47
e 44 49
e 44 52
e 44 54
e 44 55
e 44 56
e 44 59
e 44 61
e 44 63
e 44 67
e 44 68
e 44 69
e 44 70
e 44 71
e 44 72
e 44 75
e 44 77
e 44 85
e 44 86
e 44 88
e 44 90
e 44 91
e 44 92
e 44 96
e 44 99
e 44 100
e 45 46
e 45 47
e 45 48
e 45 49
e 45 51
e 45 54
e 45 56
e 45 58
e 45 64
e 45 70
e 45 71
e 45 73
e 45 74
e 45 75
e 45 77
e 45 78
e 45 84
e 45 85
e 45 86
e 45 90
e 45 91
e 45 92
e 45 93
e 45 94
e 45 95
e 45 96
e 45 97
e 45 99
e 46 50
e 46 52
e 46 53
e 46 54
e 46 55
e 46 56
e 46 58
e 46 60
e 46 61
e 46 62
e 46 64
e 46 65
e 46 66
e 46 69
e 46 73
e 46 74
e 46 75
e 46 78
e 46 80
e 46 82
e 46 86
e 46 88
e 46 91
e 46 96
e 47 50
e 47 52
e 47 57
e 47 59
e 47 60
e 47 61
e 47 62
e 47 63
e 47 64
e 47 66
e 47 67
e 47 68
e 47 70
e 47 73
e 47 74
e 47 75
e 47 76
e 47 77
e 47 79
e 47 80
e 47 81
e 47 83
e 47 85
e 47 87
e 47 91
e 47 93
e 47 94
e 47 98
e 47 100
e 48 49
e 48 56
e 48 57
e 48 58
e 48 59
e 48 60
e 48 63
e 48 64
e 48 65
e 48 68
e 48 69
e 48 71
e 48 72
e 48 73
e 48 74
e 48 77
e 48 82
e 48 86
e 48 87
e 48 91
e 48 94
e 48 96
e 48 99
e 48 100
e 49 52
e 49 53
e 49 56
e 49 57
e 49 59
e 49 62
e 49 63
e 49 73
e 49 74
e 49 75
e 49 77
e 49 82
e 49 88
e 49 93
e 49 94
e 49 95
e 49 98
e 49 99
e 49 100
e 50 51
e 50 52
e 50 53
e 50 61
e 50 62
e 50 63
e 50 64
e 50 66
e 50 71
e 50 74
e 50 76
e 50 77
e 50 78
e 50 79
e 50 80
e 50 82
e 50 84
e 50 85
e 50 87
e 50 89
e 50 93
e 50 94
e 50 95
e 50 96
e 50 98
e 50 99
e 51 54
e 51 56
e 51 57
e 51 60
e 51 61
e 51 62
e 51 63
e 51 65
e 51 67
e 51 68
e 51 69
e 51 71
e 51 75
e 51 76
e 51 79
e 51 81
e 51 82
e 51 83
e 51 84
e 51 85
e 51 87
e 51 90
e 51 91
e 51 92
e 52 57
e 52 59
e 52 63
e 52 64
e 52 65
e 52 67
e 52 73
e 52 74
e 52 75
e 52 77
e 52 79
e 52 82
e 52 84
e 52 87
e 52 89
e 52 90
e 52 95
e 52 96
e 53 55
e 53 58
e 53 60
e 53 65
e 53 67
e 53 68
e 53 70
e 53 71
e 53 73
e 53 75
e 53 76
e 53 79
e 53 84
e 53 86
e 53 88
e 53 92
e 53 95
e 53 97
e 53 99
e 54 55
e 54 56
e 54 57
e 54 60
e 54 63
e 54 64
e 54 65
e 54 66
e 54 67
e 54 68
e 54 69
e 54 74
e 54 76
e 54 82
e 54 84
e 54 85
e 54 86
e 54 90
e 54 95
e 54 97
e 54 99
e 55 56
e 55 57
e 55 58
e 55 59
e 55 60
e 55 62
e 55 66
e 55 67
e 55 70
e 55 74
e 55 75
e 55 78
e 55 80
e 55 82
e 55 84
e 55 86
e 55 88
e 55 90
e 55 94
e 55 98
e 55 100
e 56 59
e 56 60
e 56 66
e 56 69
e 56 70
e 56 71
e 56 72
e 56 73
e 56 74
e 56 75
e 56 76
e 56 77
e 56 78
e 56 81
e 56 82
e 56 83
e 56 85
e 56 86
e 56 90
e 56 91
e 56 95
e 56 96
e 56 98
e 56 100
e 57 59
e 57 60
e 57 65
e 57 66
e 57 68
e 57 70
e 57 71
e 57 72
e 57 73
e 57 79
e 57 90
e 57 91
e 57 92
e 57 95
e 57 97
e 57 98
e 57 99
e 57 100
e 58 59
e 58 60
e 58 61
e 58 62
e 58 63
e 58 65
e 58 67
e 58 68
e 58 71
e 58 74
e 58 76
e 58 77
e 58 84
e 58 85
e 58 86
e 58 88
e 58 89
e 58 95
e 58 98
e 58 99
e 58 100
e 59 60
e 59 61
e 59 63
e 59 65
e 59 67
e 59 70
e 59 72
e 59 73
e 59 74
e 59 77
e 59 81
e 59 82
e 59 85
e 59 88
e 59 91
e 59 93
e 59 96
e 59 99
e 60 63
e 60 66
e 60 67
e 60 68
e 60 69
e 60 71
e 60 72
e 60 77
e 60 81
e 60 84
e 60 87
e 60 88
e 60 92
e 60 93
e 60 97
e 60 98
e 60 99
e 61 62
e 61 64
e 61 65
e 61 69
e 61 70
e 61 71
e 61 72
e 61 73
e 61 78
e 61 81
e 61 83
e 61 86
e 61 87
e 61 90
e 61 91
e 61 96
e 61 97
e 61 98
e 62 64
e 62 65
e 62 66
e 62 68
e 62 73
e 62 74
e 62 77
e 62 80
e 62 82
e 62 85
e 62 92
e 62 95
e 62 97
e 62 98
e 62 99
e 62 100
e 63 66
e 63 67
e 63 69
e 63 71
e 63 72
e 63 78
e 63 81
e 63 85
e 63 86
e 63 87
e 63 91
e 63 95
e 63 96
e 63 98
e 63 100
e 64 66
e 64 69
e 64 71
e 64 72
e 64 75
e 64 77
e 64 79
e 64 80
e 64 88
e 64 89
e 64 91
e 64 95
e 64 98
e 65 68
e 65 71
e 65 75
e 65 76
e 65 78
e 65 79
e 65 81
e 65 85
e 65 91
e 65 94
e 65 95
e 65 97
e 65 100
e 66 69
e 66 70
e 66 72
e 66 73
e 66 74
e 66 75
e 66 76
e 66 77
e 66 79
e 66 82
e 66 84
e 66 89
e 66 90
e 66 91
e 66 92
e 66 94
e 66 97
e 67 68
e 67 74
e 67 75
e 67 76
e 67 77
e 67 78
e 67 79
e 67 80
e 67 81
e 67 83
e 67 87
e 67 88
e 67 89
e 67 92
e 67 95
e 67 96
e 68 69
e 68 71
e 68 72
e 68 75
e 68 76
e 68 78
e 68 79
e 68 81
e 68 82
e 68 85
e 68 87
e 68 88
e 68 89
e 68 100
e 69 70
e 69 71
e 69 72
e 69 74
e 69 75
e 69 77
e 69 79
e 69 80
e 69 85
e 69 86
e 69 88
e 69 92
e 69 94
e 69 95
e 69 97
e 70 73
e 70 74
e 70 75
e 70 79
e 70 80
e 70 83
e 70 84
e 70 86
e 70 88
e 70 90
e 70 94
e 71 78
e 71 80
e 71 83
e 71 86
e 71 87
e 71 88
e 71 89
e 71 91
e 71 93
e 71 95
e 71 97
e 72 73
e 72 77
e 72 78
e 72 79
e 72 83
e 72 84
e 72 86
e 72 88
e 72 89
e 72 92
e 72 93
e 73 77
e 73 78
e 73 79
e 73 82
e 73 83
e 73 87
e 73 88
e 73 89
e 73 90
e 73 92
e 73 97
e 73 98
e 73 100
e 74 76
e 74 78
e 74 80
e 74 81
e 74 82
e 74 83
e 74 89
e 74 92
e 74 93
e 74 94
e 74 95
e 74 100
e 75 76
e 75 78
e 75 81
e 75 85
e 75 92
e 75 95
e 75 97
e 75 98
e 75 99
e 76 80
e 76 82
e 76 83
e 76 85
e 76 87
e 76 88
e 76 92
e 76 93
e 76 95
e 76 99
e 77 80
e 77 84
e 77 86
e 77 89
e 77 94
e 77 95
e 78 80
e 78 81
e 78 82
e 78 83
e 78 84
e 78 88
e 78 89
e 78 90
e 78 91
e 78 93
e 78 99
e 78 100
e 79 80
e 79 83
e 79 85
e 79 88
e 79 89
e 79 90
e 79 91
e 79 94
e 79 95
e 79 96
e 80 82
e 80 83
e 80 87
e 80 90
e 80 91
e 80 93
e 80 94
e 80 99
e 81 82
e 81 83
e 81 86
e 81 87
e 81 91
e 81 92
e 81 100
e 82 83
e 82 86
e 82 87
e 82 96
e 82 98
e 82 100
e 83 85
e 83 87
e 83 90
e 83 93
e 83 96
e 84 86
e 84 87
e 84 90
e 84 96
e 84 97
e 84 99
e 85 86
e 85 88
e 85 92
e 85 94
e 85 96
e 85 98
e 86 88
e 86 89
e 86 97
e 86 98
e 86 99
e 87 88
e 87 89
e 87 94
e 87 100
e 88 89
e 88 91
e 88 96
e 88 98
e 89 90
e 89 92
e 89 96
e 89 98
e 89 99
e 89 100
e 90 94
e 91 93
e 91 95
e 91 96
e 91 100
e 92 93
e 92 95
e 92 100
e 93 95
e 93 97
e 93 98
e 93 99
e 94 95
e 94 96
e 94 97
e 94 99
e 96 97
e 96 98
n 4 1
n 11 1
n 15 1
n 22 1
n 24 1
n 26 1
n 27 1
n 32 1
n 37 1
n 39 1
n 42 1
n 43 1
n 45 1
n 47 1
n 49 1
n 50 1
n 51 1
n 52 1
n 53 1
n 58 1
n 62 1
n 65 1
n 67 1
n 72 2
n 74 1
n 75 1
n 76 1
n 80 1
n 81 1
n 82 1
n 85 1
n 87 1
n 90 1
n 91 1
n 95 1
n 96 1
n 97 1
n 98 1
n 99 1
n 100 1
